NAME Original_LP
ROWS
 N  OBJ
 G  Constraint_0
 G  Constraint_1
 G  Constraint_2
 G  Constraint_3
 G  Constraint_4
 G  Constraint_5
 G  Constraint_6
 G  Constraint_7
 G  Constraint_8
 G  Constraint_9
COLUMNS
    x_0       OBJ       6.8034983218490952e+00
    x_0       Constraint_0  51
    x_0       Constraint_1  74
    x_0       Constraint_2  24
    x_0       Constraint_3  77
    x_0       Constraint_4  87
    x_0       Constraint_5  45
    x_0       Constraint_6  84
    x_0       Constraint_7  41
    x_0       Constraint_8  53
    x_0       Constraint_9  70
    x_1       OBJ       2.2490890048274941e+00
    x_1       Constraint_0  28
    x_1       Constraint_1  95
    x_1       Constraint_2  72
    x_1       Constraint_3  89
    x_1       Constraint_4  25
    x_1       Constraint_5  37
    x_1       Constraint_6  31
    x_1       Constraint_7  20
    x_1       Constraint_8  47
    x_1       Constraint_9  72
    x_2       OBJ       6.1442125666701539e+00
    x_2       Constraint_0  21
    x_2       Constraint_1  85
    x_2       Constraint_2  22
    x_2       Constraint_3  69
    x_2       Constraint_4  13
    x_2       Constraint_5  62
    x_2       Constraint_6  67
    x_2       Constraint_7  22
    x_2       Constraint_8  56
    x_2       Constraint_9  10
    x_3       OBJ       2.6452677944808718e+00
    x_3       Constraint_0  36
    x_3       Constraint_1  5
    x_3       Constraint_2  31
    x_3       Constraint_3  21
    x_3       Constraint_4  60
    x_3       Constraint_5  76
    x_3       Constraint_6  80
    x_3       Constraint_7  35
    x_3       Constraint_8  42
    x_3       Constraint_9  45
    x_4       OBJ       7.5525605476366167e+00
    x_4       Constraint_0  3
    x_4       Constraint_1  58
    x_4       Constraint_2  58
    x_4       Constraint_3  41
    x_4       Constraint_4  33
    x_4       Constraint_5  84
    x_4       Constraint_6  92
    x_4       Constraint_7  61
    x_4       Constraint_8  54
    x_4       Constraint_9  97
    x_5       OBJ       8.9925422396827059e+00
    x_5       Constraint_0  44
    x_5       Constraint_1  13
    x_5       Constraint_2  69
    x_5       Constraint_3  1
    x_5       Constraint_4  6
    x_5       Constraint_5  73
    x_5       Constraint_6  9
    x_5       Constraint_7  74
    x_5       Constraint_8  33
    x_5       Constraint_9  40
    x_6       OBJ       6.5736804684677823e+00
    x_6       Constraint_0  68
    x_6       Constraint_1  19
    x_6       Constraint_2  59
    x_6       Constraint_3  47
    x_6       Constraint_4  89
    x_6       Constraint_5  64
    x_6       Constraint_6  99
    x_6       Constraint_7  31
    x_6       Constraint_8  1
    x_6       Constraint_9  98
    x_7       OBJ       8.0969239873978456e+00
    x_7       Constraint_0  82
    x_7       Constraint_1  63
    x_7       Constraint_2  87
    x_7       Constraint_3  68
    x_7       Constraint_4  42
    x_7       Constraint_5  14
    x_7       Constraint_6  17
    x_7       Constraint_7  95
    x_7       Constraint_8  96
    x_7       Constraint_9  71
    x_8       OBJ       9.5510537189646829e+00
    x_8       Constraint_0  15
    x_8       Constraint_1  26
    x_8       Constraint_2  88
    x_8       Constraint_3  72
    x_8       Constraint_4  80
    x_8       Constraint_5  9
    x_8       Constraint_6  69
    x_8       Constraint_7  74
    x_8       Constraint_8  5
    x_8       Constraint_9  59
    x_9       OBJ       5.6342807501475054e+00
    x_9       Constraint_0  66
    x_9       Constraint_1  25
    x_9       Constraint_2  39
    x_9       Constraint_3  6
    x_9       Constraint_4  42
    x_9       Constraint_5  33
    x_9       Constraint_6  26
    x_9       Constraint_7  44
    x_9       Constraint_8  4
    x_9       Constraint_9  12
RHS
    RHS1      Constraint_0  35
    RHS1      Constraint_1  67
    RHS1      Constraint_2  40
    RHS1      Constraint_3  81
    RHS1      Constraint_4  6
    RHS1      Constraint_5  94
    RHS1      Constraint_6  36
    RHS1      Constraint_7  8
    RHS1      Constraint_8  50
    RHS1      Constraint_9  30
BOUNDS
ENDATA
